; benchmark generated from python API
(set-info :status unknown)
(declare-fun DISJ_W_S2_R_S1 () Bool)
(declare-fun DISJ_W_S1_W_S2 () Bool)
(declare-fun W_S2_V2 () Bool)
(declare-fun R_S2_V5 () Bool)
(declare-fun R_S2_V3 () Bool)
(declare-fun R_S2_V1 () Bool)
(declare-fun R_S2_V4 () Bool)
(declare-fun W_S2_V5 () Bool)
(declare-fun W_S2_V1 () Bool)
(declare-fun W_S2_V3 () Bool)
(declare-fun W_S1_V4 () Bool)
(declare-fun DISJ_W_S1_R_S2 () Bool)
(declare-fun DISJ_W_S2_R_S2 () Bool)
(declare-fun R_E1_V4 () Bool)
(declare-fun R_E1_V5 () Bool)
(declare-fun W_S1_V5 () Bool)
(declare-fun R_S2_V2 () Bool)
(declare-fun R_S1_V4 () Bool)
(declare-fun R_S1_V5 () Bool)
(declare-fun R_S1_V2 () Bool)
(declare-fun R_S1_V3 () Bool)
(declare-fun R_S1_V1 () Bool)
(declare-fun R_E1_V2 () Bool)
(declare-fun DISJ_W_S2_R_E1 () Bool)
(declare-fun R_E1_V3 () Bool)
(declare-fun DISJ_W_S1_R_S1 () Bool)
(declare-fun W_S2_V4 () Bool)
(declare-fun W_S1_V3 () Bool)
(declare-fun W_S1_V2 () Bool)
(declare-fun W_S1_V1 () Bool)
(declare-fun R_E1_V1 () Bool)
(declare-fun DISJ_W_S1_R_E1 () Bool)
(assert
 (let (($x661 (not (and DISJ_W_S1_W_S2 DISJ_W_S2_R_S1))))
 (let (($x1019 (not W_S2_V2)))
 (let (($x86 (not R_S2_V5)))
 (let (($x94 (not R_S2_V3)))
 (let (($x98 (not R_S2_V1)))
 (let (($x655 (not (and $x98 $x94 $x86 $x1019 DISJ_W_S2_R_S1))))
 (let (($x651 (not (and $x98 $x94 (not R_S2_V4) $x1019 DISJ_W_S2_R_S1))))
 (let (($x643 (not (and $x98 (not R_S2_V4) $x1019 (not W_S2_V5) DISJ_W_S2_R_S1))))
 (let (($x638 (not (and $x98 $x86 (not R_S2_V4) $x1019 DISJ_W_S2_R_S1))))
 (let (($x405 (not (and $x98 $x94 $x1019 (not W_S2_V5) DISJ_W_S2_R_S1))))
 (let (($x642 (not W_S2_V1)))
 (let (($x451 (and $x642 $x1019)))
 (let (($x634 (not $x451)))
 (let (($x499 (not (and $x94 (not R_S2_V4) (not W_S2_V5) DISJ_W_S2_R_S1))))
 (let (($x1385 (not (and (not R_S2_V4) (not W_S2_V5) (not W_S2_V3) DISJ_W_S2_R_S1))))
 (let (($x601 (not (and $x94 (not W_S1_V4) (not W_S2_V5) DISJ_W_S2_R_S1))))
 (let (($x846 (not (and DISJ_W_S1_R_S2 DISJ_W_S2_R_S1))))
 (let (($x847 (not (and $x1019 DISJ_W_S2_R_S2))))
 (let (($x1457 (not (and DISJ_W_S2_R_S1 DISJ_W_S2_R_S2))))
 (let (($x1054 (not (and W_S1_V4 R_E1_V4))))
 (let (($x737 (not (and W_S1_V5 R_E1_V5))))
 (let (($x1985 (forall ((V3_0 Int) )(forall ((V2_0 Int) )(forall ((V5_0 Int) )(forall ((V4_0 Int) )(forall ((MW_S1_V1 Bool) )(forall ((MW_S1_V3 Bool) )(forall ((MW_S1_V2 Bool) )(forall ((MW_S1_V5 Bool) )(forall ((MW_S1_V4 Bool) )(forall ((MW_S2_V1 Bool) )(forall ((MW_S2_V3 Bool) )(forall ((MW_S2_V2 Bool) )(forall ((MW_S2_V5 Bool) )(forall ((MW_S2_V4 Bool) )(forall ((S1_V1_!2447 Int) )(forall ((S1_V1_!2464 Int) )(forall ((S1_V1_!2474 Int) )(forall ((S2_V5_!2456 Int) )(forall ((S2_V5_!2461 Int) )(forall ((S2_V5_!2472 Int) )(forall ((S2_V5_!2482 Int) )(forall ((S1_V3_!2448 Int) )(forall ((S1_V3_!2465 Int) )(forall ((S1_V3_!2475 Int) )(forall ((S1_V2_!2449 Int) )(forall ((S1_V2_!2466 Int) )(forall ((S1_V2_!2476 Int) )(forall ((E1_!2446 Int) )(forall ((E1_!2452 Int) )(forall ((E1_!2463 Int) )(forall ((S2_V4_!2457 Int) )(forall ((S2_V4_!2462 Int) )(forall ((S2_V4_!2473 Int) )(forall ((S2_V4_!2483 Int) )(forall ((S1_V5_!2450 Int) )(forall ((S1_V5_!2467 Int) )(forall ((S1_V5_!2477 Int) )(forall ((S2_V1_!2453 Int) )(forall ((S2_V1_!2458 Int) )(forall ((S2_V1_!2469 Int) )(forall ((S2_V1_!2479 Int) )(forall ((S1_V4_!2451 Int) )(forall ((S1_V4_!2468 Int) )(forall ((S1_V4_!2478 Int) )(forall ((S2_V2_!2455 Int) )(forall ((S2_V2_!2460 Int) )(forall ((S2_V2_!2471 Int) )(forall ((S2_V2_!2481 Int) )(forall ((S2_V3_!2454 Int) )(forall ((S2_V3_!2459 Int) )(forall ((S2_V3_!2470 Int) )(forall ((S2_V3_!2480 Int) )(let (($x5 (= (ite MW_S2_V4 S2_V4_!2462 (ite MW_S1_V4 S1_V4_!2451 V4_0)) (ite MW_S2_V4 S2_V4_!2483 (ite MW_S1_V4 S1_V4_!2478 (ite MW_S2_V4 S2_V4_!2473 (ite MW_S1_V4 S1_V4_!2468 V4_0)))))))
 (let (($x148 (= (ite MW_S2_V5 S2_V5_!2461 (ite MW_S1_V5 S1_V5_!2450 V5_0)) (ite MW_S2_V5 S2_V5_!2482 (ite MW_S1_V5 S1_V5_!2477 (ite MW_S2_V5 S2_V5_!2472 (ite MW_S1_V5 S1_V5_!2467 V5_0)))))))
 (let ((?x150 (ite MW_S1_V2 S1_V2_!2466 V2_0)))
 (let ((?x7 (ite MW_S2_V2 S2_V2_!2471 ?x150)))
 (let ((?x39 (ite MW_S1_V2 S1_V2_!2476 ?x7)))
 (let ((?x290 (ite MW_S2_V2 S2_V2_!2481 ?x39)))
 (let ((?x291 (ite MW_S1_V2 S1_V2_!2449 V2_0)))
 (let ((?x292 (ite MW_S2_V2 S2_V2_!2460 ?x291)))
 (let (($x298 (= (ite MW_S2_V3 S2_V3_!2459 (ite MW_S1_V3 S1_V3_!2448 V3_0)) (ite MW_S2_V3 S2_V3_!2480 (ite MW_S1_V3 S1_V3_!2475 (ite MW_S2_V3 S2_V3_!2470 (ite MW_S1_V3 S1_V3_!2465 V3_0)))))))
 (let ((?x299 (ite MW_S1_V1 S1_V1_!2464 E1_!2463)))
 (let ((?x300 (ite MW_S2_V1 S2_V1_!2469 ?x299)))
 (let ((?x301 (+ 1 ?x300)))
 (let ((?x302 (ite MW_S1_V1 S1_V1_!2474 ?x301)))
 (let ((?x303 (ite MW_S2_V1 S2_V1_!2479 ?x302)))
 (let ((?x304 (ite MW_S2_V1 S2_V1_!2453 E1_!2452)))
 (let ((?x305 (+ 1 ?x304)))
 (let ((?x306 (ite MW_S2_V1 S2_V1_!2458 ?x305)))
 (let (($x312 (and (not (<= V2_0 E1_!2446)) (>= (ite MW_S1_V1 S1_V1_!2447 E1_!2446) (+ (- 1) ?x291)) (not (<= ?x291 E1_!2452)) (not (<= (ite MW_S2_V2 S2_V2_!2455 ?x291) ?x305)) (>= ?x306 (+ (- 1) ?x292)) (not (<= V2_0 E1_!2463)) (not (<= ?x7 ?x301)) (>= ?x303 (+ (- 1) ?x290)))))
 (let (($x106 (= S2_V3_!2480 S2_V3_!2470)))
 (let ((?x169 (ite MW_S1_V4 S1_V4_!2468 V4_0)))
 (let ((?x272 (ite MW_S2_V4 S2_V4_!2473 ?x169)))
 (let ((?x170 (ite MW_S1_V4 S1_V4_!2478 ?x272)))
 (let (($x82 (not R_S2_V4)))
 (let ((?x273 (ite MW_S1_V5 S1_V5_!2467 V5_0)))
 (let ((?x6 (ite MW_S2_V5 S2_V5_!2472 ?x273)))
 (let ((?x95 (ite MW_S1_V5 S1_V5_!2477 ?x6)))
 (let (($x86 (not R_S2_V5)))
 (let ((?x295 (ite MW_S1_V3 S1_V3_!2465 V3_0)))
 (let ((?x296 (ite MW_S2_V3 S2_V3_!2470 ?x295)))
 (let ((?x43 (ite MW_S1_V3 S1_V3_!2475 ?x296)))
 (let (($x94 (not R_S2_V3)))
 (let (($x101 (and (or (not R_S2_V1) (= ?x302 ?x299)) (or $x94 (= ?x43 ?x295)) (or (not R_S2_V2) (= ?x39 ?x150)) (or $x86 (= ?x95 ?x273)) (or $x82 (= ?x170 ?x169)))))
 (let (($x102 (not $x101)))
 (let (($x138 (= S2_V3_!2480 S2_V3_!2459)))
 (let (($x320 (and (or (not R_S2_V1) (= ?x302 ?x305)) (or $x94 (= ?x43 (ite MW_S2_V3 S2_V3_!2454 (ite MW_S1_V3 S1_V3_!2448 V3_0)))) (or (not R_S2_V2) (= ?x39 (ite MW_S2_V2 S2_V2_!2455 ?x291))) (or $x86 (= ?x95 (ite MW_S2_V5 S2_V5_!2456 (ite MW_S1_V5 S1_V5_!2450 V5_0)))) (or $x82 (= ?x170 (ite MW_S2_V4 S2_V4_!2457 (ite MW_S1_V4 S1_V4_!2451 V4_0)))))))
 (let (($x1465 (not $x320)))
 (let (($x975 (= S2_V3_!2470 S2_V3_!2459)))
 (let (($x889 (and (or (not R_S2_V1) (= ?x299 ?x305)) (or $x94 (= ?x295 (ite MW_S2_V3 S2_V3_!2454 (ite MW_S1_V3 S1_V3_!2448 V3_0)))) (or (not R_S2_V2) (= ?x150 (ite MW_S2_V2 S2_V2_!2455 ?x291))) (or $x86 (= ?x273 (ite MW_S2_V5 S2_V5_!2456 (ite MW_S1_V5 S1_V5_!2450 V5_0)))) (or $x82 (= ?x169 (ite MW_S2_V4 S2_V4_!2457 (ite MW_S1_V4 S1_V4_!2451 V4_0)))))))
 (let (($x1477 (not $x889)))
 (let (($x1478 (= S2_V3_!2454 S2_V3_!2480)))
 (let (($x1492 (and (or (not R_S2_V1) (= E1_!2452 ?x302)) (or $x94 (= (ite MW_S1_V3 S1_V3_!2448 V3_0) ?x43)) (or (not R_S2_V2) (= ?x291 ?x39)) (or $x86 (= (ite MW_S1_V5 S1_V5_!2450 V5_0) ?x95)) (or $x82 (= (ite MW_S1_V4 S1_V4_!2451 V4_0) ?x170)))))
 (let (($x1493 (not $x1492)))
 (let (($x1504 (= S2_V3_!2454 S2_V3_!2470)))
 (let (($x332 (and (or (not R_S2_V1) (= E1_!2452 ?x299)) (or $x94 (= (ite MW_S1_V3 S1_V3_!2448 V3_0) ?x295)) (or (not R_S2_V2) (= ?x291 ?x150)) (or $x86 (= (ite MW_S1_V5 S1_V5_!2450 V5_0) ?x273)) (or $x82 (= (ite MW_S1_V4 S1_V4_!2451 V4_0) ?x169)))))
 (let (($x334 (not $x332)))
 (let (($x335 (= S2_V3_!2454 S2_V3_!2459)))
 (let (($x337 (or $x82 (= (ite MW_S1_V4 S1_V4_!2451 V4_0) (ite MW_S2_V4 S2_V4_!2457 (ite MW_S1_V4 S1_V4_!2451 V4_0))))))
 (let (($x339 (or $x86 (= (ite MW_S1_V5 S1_V5_!2450 V5_0) (ite MW_S2_V5 S2_V5_!2456 (ite MW_S1_V5 S1_V5_!2450 V5_0))))))
 (let (($x343 (or $x94 (= (ite MW_S1_V3 S1_V3_!2448 V3_0) (ite MW_S2_V3 S2_V3_!2454 (ite MW_S1_V3 S1_V3_!2448 V3_0))))))
 (let (($x346 (and (or (not R_S2_V1) (= E1_!2452 ?x305)) $x343 (or (not R_S2_V2) (= ?x291 (ite MW_S2_V2 S2_V2_!2455 ?x291))) $x339 $x337)))
 (let (($x347 (not $x346)))
 (let (($x348 (= S2_V2_!2481 S2_V2_!2455)))
 (let (($x1166 (and (or (not R_S2_V1) (= ?x302 E1_!2452)) (or $x94 (= ?x43 (ite MW_S1_V3 S1_V3_!2448 V3_0))) (or (not R_S2_V2) (= ?x39 ?x291)) (or $x86 (= ?x95 (ite MW_S1_V5 S1_V5_!2450 V5_0))) (or $x82 (= ?x170 (ite MW_S1_V4 S1_V4_!2451 V4_0))))))
 (let (($x1326 (not $x1166)))
 (let (($x188 (= S2_V2_!2471 S2_V2_!2481)))
 (let (($x1359 (and (or (not R_S2_V1) (= ?x299 ?x302)) (or $x94 (= ?x295 ?x43)) (or (not R_S2_V2) (= ?x150 ?x39)) (or $x86 (= ?x273 ?x95)) (or $x82 (= ?x169 ?x170)))))
 (let (($x1230 (not $x1359)))
 (let (($x369 (= S2_V2_!2471 S2_V2_!2455)))
 (let (($x1093 (and (or (not R_S2_V1) (= ?x299 E1_!2452)) (or $x94 (= ?x295 (ite MW_S1_V3 S1_V3_!2448 V3_0))) (or (not R_S2_V2) (= ?x150 ?x291)) (or $x86 (= ?x273 (ite MW_S1_V5 S1_V5_!2450 V5_0))) (or $x82 (= ?x169 (ite MW_S1_V4 S1_V4_!2451 V4_0))))))
 (let (($x1329 (not $x1093)))
 (let (($x113 (not R_S1_V4)))
 (let (($x572 (or $x113 (= ?x272 V4_0))))
 (let (($x108 (not R_S1_V5)))
 (let (($x1240 (or $x108 (= ?x6 V5_0))))
 (let (($x128 (not R_S1_V2)))
 (let (($x410 (or $x128 (= ?x7 V2_0))))
 (let (($x1086 (not R_S1_V3)))
 (let (($x1178 (or $x1086 (= ?x296 V3_0))))
 (let (($x1388 (and (or (not R_S1_V1) (= ?x300 (+ (- 1) E1_!2446))) $x1178 $x410 $x1240 $x572)))
 (let (($x1452 (not $x1388)))
 (let (($x698 (= S1_V4_!2468 S1_V4_!2478)))
 (let (($x1338 (or $x113 (= V4_0 ?x272))))
 (let (($x1339 (or $x108 (= V5_0 ?x6))))
 (let (($x1158 (or $x128 (= V2_0 ?x7))))
 (let (($x1271 (or $x1086 (= V3_0 ?x296))))
 (let (($x667 (not (and (or (not R_S1_V1) (= E1_!2463 ?x301)) $x1271 $x1158 $x1339 $x1338))))
 (let (($x1239 (and (or (not R_S2_V1) (= ?x304 (+ (- 1) ?x302))) (or $x94 (= (ite MW_S2_V3 S2_V3_!2454 (ite MW_S1_V3 S1_V3_!2448 V3_0)) ?x43)) (or (not R_S2_V2) (= (ite MW_S2_V2 S2_V2_!2455 ?x291) ?x39)) (or $x86 (= (ite MW_S2_V5 S2_V5_!2456 (ite MW_S1_V5 S1_V5_!2450 V5_0)) ?x95)) (or $x82 (= (ite MW_S2_V4 S2_V4_!2457 (ite MW_S1_V4 S1_V4_!2451 V4_0)) ?x170)))))
 (let (($x1141 (not $x1239)))
 (let (($x1056 (and (or (not R_S1_V1) (= ?x300 (+ (- 1) E1_!2463))) $x1178 $x410 $x1240 $x572)))
 (let (($x1203 (not $x1056)))
 (let (($x1125 (and (or (not R_S2_V1) (= ?x304 (+ (- 1) ?x299))) (or $x94 (= (ite MW_S2_V3 S2_V3_!2454 (ite MW_S1_V3 S1_V3_!2448 V3_0)) ?x295)) (or (not R_S2_V2) (= (ite MW_S2_V2 S2_V2_!2455 ?x291) ?x150)) (or $x86 (= (ite MW_S2_V5 S2_V5_!2456 (ite MW_S1_V5 S1_V5_!2450 V5_0)) ?x273)) (or $x82 (= (ite MW_S2_V4 S2_V4_!2457 (ite MW_S1_V4 S1_V4_!2451 V4_0)) ?x169)))))
 (let (($x1331 (not $x1125)))
 (let (($x1238 (= E1_!2463 E1_!2446)))
 (let (($x1255 (and (or (not R_E1_V2) (= ?x291 V2_0)) (or (not R_E1_V5) (= (ite MW_S1_V5 S1_V5_!2450 V5_0) V5_0)) (or (not R_E1_V4) (= (ite MW_S1_V4 S1_V4_!2451 V4_0) V4_0)))))
 (let (($x1258 (not $x1255)))
 (let (($x1325 (or $x82 (= (ite MW_S2_V4 S2_V4_!2457 (ite MW_S1_V4 S1_V4_!2451 V4_0)) (ite MW_S1_V4 S1_V4_!2451 V4_0)))))
 (let (($x1328 (or $x86 (= (ite MW_S2_V5 S2_V5_!2456 (ite MW_S1_V5 S1_V5_!2450 V5_0)) (ite MW_S1_V5 S1_V5_!2450 V5_0)))))
 (let (($x636 (or $x94 (= (ite MW_S2_V3 S2_V3_!2454 (ite MW_S1_V3 S1_V3_!2448 V3_0)) (ite MW_S1_V3 S1_V3_!2448 V3_0)))))
 (let (($x1199 (and (or (not R_S2_V1) (= ?x304 (+ (- 1) E1_!2452))) $x636 (or (not R_S2_V2) (= (ite MW_S2_V2 S2_V2_!2455 ?x291) ?x291)) $x1328 $x1325)))
 (let (($x1373 (or (not (and (or (not R_S1_V1) (= E1_!2446 ?x301)) $x1271 $x1158 $x1339 $x1338)) (= S1_V1_!2447 S1_V1_!2474))))
 (let (($x1147 (and $x1373 (or (not (or (not R_S1_V1) $x1238)) (= S1_V1_!2464 S1_V1_!2447)) (or $x667 (= S1_V1_!2464 S1_V1_!2474)) (or $x334 (= S2_V5_!2456 S2_V5_!2472)) (or (not $x1199) (= S2_V5_!2461 S2_V5_!2456)) (or $x1331 (= S2_V5_!2461 S2_V5_!2472)) (or $x1326 (= S2_V5_!2482 S2_V5_!2456)) (or $x1465 (= S2_V5_!2482 S2_V5_!2461)) (or $x102 (= S2_V5_!2482 S2_V5_!2472)) (or (not (or (not R_S1_V1) $x1238)) (= S1_V3_!2465 S1_V3_!2448)) (or $x667 (= S1_V3_!2465 S1_V3_!2475)) (or $x1452 (= S1_V3_!2475 S1_V3_!2448)) (or (not (or (not R_S1_V1) $x1238)) (= S1_V2_!2466 S1_V2_!2449)) (or $x1452 (= S1_V2_!2476 S1_V2_!2449)) (or $x1203 (= S1_V2_!2476 S1_V2_!2466)) (or $x1258 (= E1_!2452 E1_!2446)) (or $x1258 (= E1_!2452 E1_!2463)) $x1238 (or $x347 (= S2_V4_!2457 S2_V4_!2462)) (or $x334 (= S2_V4_!2457 S2_V4_!2473)) (or $x1493 (= S2_V4_!2457 S2_V4_!2483)) (or $x1331 (= S2_V4_!2462 S2_V4_!2473)) (or $x1141 (= S2_V4_!2462 S2_V4_!2483)) (or $x102 (= S2_V4_!2483 S2_V4_!2473)) (or (not (or (not R_S1_V1) $x1238)) (= S1_V5_!2467 S1_V5_!2450)) (or $x1452 (= S1_V5_!2477 S1_V5_!2450)) (or $x1203 (= S1_V5_!2477 S1_V5_!2467)) (or $x347 (= S2_V1_!2453 S2_V1_!2458)) (or $x1493 (= S2_V1_!2453 S2_V1_!2479)) (or $x1141 (= S2_V1_!2458 S2_V1_!2479)) (or $x1329 (= S2_V1_!2469 S2_V1_!2453)) (or $x1477 (= S2_V1_!2469 S2_V1_!2458)) (or $x1230 (= S2_V1_!2469 S2_V1_!2479)) (or (not (or (not R_S1_V1) $x1238)) (= S1_V4_!2468 S1_V4_!2451)) (or $x667 $x698) (or $x1452 (= S1_V4_!2478 S1_V4_!2451)) (or $x347 (= S2_V2_!2455 S2_V2_!2460)) (or $x1329 $x369) (or $x1477 (= S2_V2_!2471 S2_V2_!2460)) (or $x1230 $x188) (or $x1326 $x348) (or $x1465 (= S2_V2_!2481 S2_V2_!2460)) (or $x347 $x335) (or $x334 $x1504) (or $x1493 $x1478) (or $x1477 $x975) (or $x1465 $x138) (or $x102 $x106) (not MW_S1_V1) (not MW_S1_V2) (or (not MW_S1_V5) W_S1_V5) (or (not MW_S1_V4) W_S1_V4) (or (not MW_S2_V1) W_S2_V1) (or (not MW_S2_V3) W_S2_V3) (or (not MW_S2_V2) W_S2_V2) (or (not MW_S2_V5) W_S2_V5))))
 (or (not $x1147) (not $x312) (and (= ?x306 ?x303) $x298 (= ?x292 ?x290) $x148 $x5))))))))))))))))))))))))))))))))))))))))))))))))))))))))))))))))))))))))))))))))))))))))))))))
 )
 )
 )
 )
 )
 )
 )
 )
 )
 )
 )
 )
 )
 )
 )
 )
 )
 )
 )
 )
 )
 )
 )
 )
 )
 )
 )
 )
 )
 )
 )
 )
 )
 )
 )
 )
 )
 )
 )
 )
 )
 )
 )
 )
 )
 )
 )
 )
 )
 )
 )
 ))
 (let (($x1360 (not (or (and W_S2_V2 R_E1_V2) (and W_S2_V5 R_E1_V5) R_E1_V4))))
 (let (($x513 (= DISJ_W_S2_R_E1 $x1360)))
 (let (($x1122 (and W_S2_V5 R_S2_V5)))
 (let (($x1121 (and W_S2_V2 R_S2_V2)))
 (let (($x1120 (and W_S2_V3 R_S2_V3)))
 (let (($x1302 (and W_S2_V1 R_S2_V1)))
 (let (($x1018 (= DISJ_W_S2_R_S2 (not (or $x1302 $x1120 $x1121 $x1122 R_S2_V4)))))
 (let (($x438 (and W_S2_V5 R_S1_V5)))
 (let (($x1092 (and W_S2_V2 R_S1_V2)))
 (let (($x1088 (and W_S2_V3 R_S1_V3)))
 (let (($x446 (and W_S2_V1 R_S1_V1)))
 (let (($x504 (= DISJ_W_S2_R_S1 (not (or $x446 $x1088 $x1092 $x438 R_S1_V4)))))
 (let (($x999 (= DISJ_W_S1_W_S2 (not (or W_S2_V3 (and W_S1_V5 W_S2_V5) W_S1_V4)))))
 (let (($x809 (not R_E1_V3)))
 (let (($x992 (not (or R_S2_V3 (and W_S1_V5 R_S2_V5) (and W_S1_V4 R_S2_V4)))))
 (let (($x1379 (= DISJ_W_S1_R_S2 $x992)))
 (let (($x828 (not (or R_S1_V3 (and W_S1_V5 R_S1_V5) (and W_S1_V4 R_S1_V4)))))
 (let (($x599 (= DISJ_W_S1_R_S1 $x828)))
 (let (($x132 (not R_S1_V1)))
 (let (($x428 (and $x132 DISJ_W_S1_R_S1)))
 (let (($x528 (and $x1019 DISJ_W_S2_R_S1 DISJ_W_S1_R_S1)))
 (let (($x1449 (or $x528 $x451 $x428)))
 (let (($x685 (not W_S1_V2)))
 (let (($x333 (not W_S1_V1)))
 (let (($x456 (not R_E1_V1)))
 (let (($x1524 (and DISJ_W_S1_R_E1 $x456 $x333 $x685 $x1449 W_S1_V3 W_S2_V4 $x599 $x1379 $x809 $x999 $x504 $x1018 $x513 $x1985 $x737 $x1054)))
 (and $x1524 $x1457 $x847 $x846 $x601 $x1385 $x499 $x634 $x405 $x638 $x643 $x651 $x655 $x661))))))))))))))))))))))))))))))))))))))))))))))))))
(check-sat)
